num_staff = 6;
work_load = [100, 100, 100, 100, 100, 100];
num_days = 35;
unavailable = [
    {1,  11,  21},
    {1, 3, 10, 21},
    {3,16},
    {2},
    {2,14},
    {}
];
fixed = [
    {},
    {},
    {1},
    {12},
    {},
    {13}
];
weekend_offset = 2;
adj_days_str = 1;
wed_before_weekend_str = 1;


staffWork =   [1,   2,  3, 3, 4];
desiredWork = [{4},{4},{4,5},{4,6},{4,16}];
scWork =      [ 1 , 2, 3, 4, 5];

staffNotWork =   [2   , 4];
desiredNotWork = [{4}, {2}];
scNotWork =      [ 6,   7, 8 ];


crCustomEdges = [| 2, 1 | 6, 7 | 3,4  | 7, 8 |];
max_week_day_bt = 15;
max_weekend_bt = 15; % found by previous runs with the original model
